NAME: I5381-n39-k4
COMMENT : (Fake et al, No of trucks: 4, Optimal value: )
TYPE : CVRP
DIMENSION : 39
EDGE_WEIGHT_TYPE : EUC_2D
CAPACITY : 36
NODE_COORD_SECTION
1 464 869
2 881 135
3 666 592
4 365 380
5 287 805
6 555 325
7 98 277
8 537 749
9 481 825
10 175 860
11 19 761
12 573 293
13 829 412
14 80 857
15 470 531
16 730 489
17 136 832
18 158 335
19 423 315
20 913 356
21 863 721
22 785 342
23 528 660
24 937 302
25 529 434
26 971 677
27 44 540
28 501 442
29 331 435
30 978 824
31 906 859
32 415 412
33 333 896
34 999 373
35 988 462
36 274 827
37 671 611
38 955 93
39 525 708
DEMAND_SECTION
1 0
2 2
3 1
4 3
5 2
6 2
7 2
8 1
9 4
10 2
11 5
12 2
13 4
14 5
15 5
16 5
17 4
18 4
19 5
20 4
21 5
22 3
23 3
24 4
25 2
26 5
27 3
28 2
29 5
30 4
31 2
32 3
33 1
34 1
35 2
36 3
37 1
38 1
39 4
DEPOT_SECTION
 1
 -1
 EOF 